&control
    calculation='md'
    restart_mode='from_scratch',
    pseudo_dir = '/home/brianbar/work/quantExpre',
    outdir='/home/brianbar/work/tmp',
    dt=20,
    nstep=100,
    disk_io='high'
/
&system
    ibrav= 1, celldm(1)=20.00, nat=  2, ntyp= 1,
    ecutwfc = 25.0, nosym=.true.
/
&electrons
    conv_thr =  1.0d-8,
    mixing_beta = 0.7
/
&ions
    pot_extrapolation='second-order'
    wfc_extrapolation='second-order'
/
ATOMIC_SPECIES
 Si  28.086  Si.pz-vbc.UPF
ATOMIC_POSITIONS
 Si -0.123 -0.123 -0.123
 Si  0.123  0.123  0.123
K_POINTS
 1
0.0 0.0 0.0 1.0
