&control
    calculation='md'
    pseudo_dir = './',
    outdir='./outputs',
	dt=10,
	nstep=5000,
    disk_io='high'
/
&system
    ibrav= 1, celldm(1)=20.000000, nat=  3, ntyp= 2,
    ecutwfc = 60.0, nosym=.true., occupations='smearing',
    smearing='m-v', degauss=0.025
/
&electrons
    conv_thr =  1.0d-8,
    mixing_beta = 0.7,
    scf_must_converge=.false.,
    electron_maxstep=500
/
&ions
    pot_extrapolation='second-order'
    wfc_extrapolation='second-order'
    ion_temperature = 'andersen'
	tempw = 400

/
ATOMIC_SPECIES
 H  1.01  H.blyp-hgh.UPF
 O  16.0  O.blyp-hgh.UPF
ATOMIC_POSITIONS angstrom
 H -0.444368 0.905744 -0.094700
 H -0.119702 -0.518907 -0.778049
 O 0.037230 -0.001295 0.129505
K_POINTS
 1
0.0 0.0 0.0 1.0
