&control
    calculation='scf'
    pseudo_dir = '../pslibrary/pbe/PSEUDOPOTENTIALS/',
    outdir='./outputs',
    disk_io='high'
/
&system
    ibrav= 1, celldm(1)=20.0, nat=  3, ntyp= 2,
    ecutwfc = 200.0, nosym=.true., occupations='smearing',
    smearing='m-v', degauss=0.025
/
&electrons
    conv_thr =  1.0d-8,
    mixing_beta = 0.7
/
&ions
    pot_extrapolation='second-order'
    wfc_extrapolation='second-order'
    ion_temperature = 'andersen'

/
ATOMIC_SPECIES
 H  1.01  H.pbe-rrkjus_psl.1.0.0.UPF
 O  16.0  O.pbe-n-rrkjus_psl.1.0.0.UPF
ATOMIC_POSITIONS angstrom
 O 0.081461 -0.022613 -0.015406
 H -1.283602 -0.065949 0.146104
 H -0.006865 0.424170 1.033154
K_POINTS {automatic}
 1 1 1 0 0 0