&control
    calculation='relax',
    restart_mode='from_scratch',
    pseudo_dir = '../',
    outdir='./outputs',
    disk_io='high'
/
&system
    ibrav= 1, celldm(1)=20.000000, nat=  3, ntyp= 2,
    ecutwfc = 90.0, nosym=.true., occupations='smearing',
    smearing='m-v', degauss=0.025
/
&electrons
    conv_thr =  1.0d-8,
    mixing_beta = 0.7
/
&ions
    pot_extrapolation='second-order'
    wfc_extrapolation='second-order'
    ion_temperature = 'andersen'
    tempw = 100

/
ATOMIC_SPECIES
 H  1.01  H.blyp-hgh.UPF
 O  16.0  O.blyp-hgh.UPF
ATOMIC_POSITIONS angstrom
 H -0.253222 -0.257657 -0.759075
 H 0.417111 0.707396 -0.147067
 O -0.010346 -0.028390 0.116235
K_POINTS
 1
0.0 0.0 0.0 1.0