&control
    calculation='scf'
    pseudo_dir = '../',
    outdir='./outputs',
    disk_io='high'
/
&system
    ibrav= 1, celldm(1)=20.000000, nat=  3, ntyp= 2,
    ecutwfc = 90.0, nosym=.true., occupations='smearing',
    smearing='m-v', degauss=0.025
/
&electrons
    conv_thr =  1.0d-8,
    mixing_beta = 0.7
/
&ions
    pot_extrapolation='second-order'
    wfc_extrapolation='second-order'
    ion_temperature = 'andersen'

/
ATOMIC_SPECIES
 H  1.01  H.blyp-hgh.UPF
 O  16.0  O.blyp-hgh.UPF
ATOMIC_POSITIONS angstrom
 H -0.819505 0.061364 0.529304
 H 0.046669 0.480648 -0.691014
 O 0.052547 -0.066131 0.110121
K_POINTS
 1
0.0 0.0 0.0 1.0