&control
    calculation='md'
    pseudo_dir = './',
    outdir='./outputs',
    disk_io='high',
    dt=10,
    nstep=5000
    
/
&system
    ibrav= 1, celldm(1)=20.0, nat=  99, ntyp= 2,
    ecutwfc = 30.0, nosym=.true., occupations='smearing',
    smearing='m-v', degauss=0.025
/
&electrons
    conv_thr =  1.0d-8,
    mixing_beta = 0.7,
    scf_must_converge=.false.,
    electron_maxstep=500
/
&ions
    pot_extrapolation='second-order'
    wfc_extrapolation='second-order'
    ion_temperature = 'andersen'
    tempw = 1000

/
ATOMIC_SPECIES
 H  1.01  H.blyp-hgh.UPF
 O  16.0  O.blyp-hgh.UPF
ATOMIC_POSITIONS angstrom
 O 3.878831 4.327255 1.677443
 H 7.783950 9.908149 0.091915
 H 9.783823 4.432532 3.223963
 O 5.847758 8.555431 3.059344
 H 5.547867 1.268217 4.063349
 H 1.473542 8.499716 0.514703
 O 9.293027 10.049843 1.299979
 H 4.477130 6.703928 10.571995
 H 2.401468 6.945691 4.321055
 O 7.232698 2.956228 7.141234
 H 3.973201 7.976675 3.588446
 H 3.428045 3.114735 0.066959
 O 3.092150 6.672738 3.561753
 H 6.044877 10.134704 1.079943
 H 2.028412 3.573360 10.160215
 O 8.832181 4.987763 1.102036
 H 0.635918 10.281035 0.473608
 H 3.660846 10.346748 5.424437
 O 8.606905 1.951000 5.865825
 H 3.759807 3.194756 10.130636
 H 9.265107 5.044478 4.957544
 O 5.135554 9.068766 0.912442
 H 3.767624 2.372972 8.307479
 H 2.761512 3.574610 1.006797
 O 6.765992 2.085005 0.416169
 H 7.761146 8.961125 2.021242
 H 2.154440 1.484037 5.551730
 O 1.283110 2.276069 4.728729
 H 5.621585 7.209323 2.921150
 H 4.359327 10.560535 2.444759
 O 6.637752 2.671174 10.297238
 H 0.715559 3.241162 0.442567
 H 0.076467 7.326283 10.548774
 O 7.176785 3.176559 5.569294
 H 8.569418 9.053456 6.854191
 H 9.815118 4.033414 3.804880
 O 0.202272 6.570138 5.152973
 H 8.242838 4.007196 5.197061
 H 5.888059 2.329163 8.957191
 O 2.554414 10.143317 6.622669
 H 9.360115 8.190557 1.670889
 H 10.533015 1.486141 3.743062
 O 3.186242 6.467832 6.661769
 H 5.183960 4.894372 5.030308
 H 2.712416 3.134110 4.187508
 O 6.686189 4.161004 2.516206
 H 8.614717 7.289764 5.038859
 H 9.517545 5.142071 6.287942
 O 4.781080 9.961082 8.156219
 H 3.223454 2.856497 3.890496
 H 3.278487 6.384559 0.388023
 O 9.071343 1.689231 7.671152
 H 10.430999 2.388260 9.891805
 H 1.198102 8.104494 2.950086
 O 0.561199 8.008893 3.510155
 H 6.879838 2.759188 1.344629
 H 8.317943 9.517107 7.799768
 O 9.996371 7.219202 8.152020
 H 0.765868 6.452284 3.919046
 H 4.605009 9.681328 5.702545
 O 7.323617 9.341097 8.337712
 H 7.879968 0.506909 4.310004
 H 0.245542 2.649349 5.218272
 O 1.446684 3.381450 6.031942
 H 8.327853 3.268542 4.725132
 H 8.471741 6.885911 4.728133
 O 9.121643 5.300147 0.894820
 H 8.616784 3.078732 7.001141
 H 8.065971 0.341406 9.005953
 O 5.725515 6.661648 4.055478
 H 1.994688 8.112586 4.813146
 H 3.037622 1.950839 9.355106
 O 5.076345 6.389213 5.341349
 H 1.968647 4.515877 0.017710
 H 10.077943 6.467790 1.179163
 O 1.498047 5.682004 1.123891
 H 8.278329 0.949778 5.567955
 H 2.171608 8.945189 5.882440
 O 6.953752 5.540398 10.554095
 H 6.197449 9.620363 5.065746
 H 6.074687 5.147078 8.390178
 O 2.706565 3.959392 7.204171
 H 5.464516 6.360288 9.350474
 H 0.410313 0.978500 7.465193
 O 3.395393 0.701135 1.723730
 H 9.926918 4.418007 7.163968
 H 7.562428 2.916948 6.926697
 O 2.847592 9.823091 2.652542
 H 0.301135 8.953552 5.847286
 H 9.100014 0.522267 4.456227
 O 4.394276 4.375696 3.646903
 H 0.696410 10.465571 9.784053
 H 8.086360 3.217323 9.945001
 O 0.122341 2.187462 7.277879
 H 3.278213 9.648677 8.269169
 H 8.779367 5.750984 5.602586
 O 6.464525 2.161409 3.718619
 H 9.816996 4.235868 3.804966
 H 4.647742 5.056915 4.245358
K_POINTS
 1
0.0 0.0 0.0 1.0