&control
    calculation='md'
    pseudo_dir = './',
    outdir='./outputs',
    disk_io='high',
    dt=10,
    nstep=5000
    
/
&system
    ibrav= 1, celldm(1)=20.0, nat=  99, ntyp= 2,
    ecutwfc = 30.0, nosym=.true., occupations='smearing',
    smearing='m-v', degauss=0.025
/
&electrons
    conv_thr =  1.0d-8,
    mixing_beta = 0.7,
    scf_must_converge=.false.,
    electron_maxstep=500
/
&ions
    pot_extrapolation='second-order'
    wfc_extrapolation='second-order'
    ion_temperature = 'andersen'
    tempw = 1000

/
ATOMIC_SPECIES
 H  1.01  H.blyp-hgh.UPF
 O  16.0  O.blyp-hgh.UPF
ATOMIC_POSITIONS angstrom
 O 5.851238 10.057067 8.866833
 H 7.347939 4.973555 10.103720
 H 5.804957 6.081565 6.923329
 O 3.554242 2.152188 1.119326
 H 6.686541 3.831575 7.730154
 H 8.399586 8.241853 4.369785
 O 2.398282 0.251133 3.157455
 H 8.169035 9.721538 9.448559
 H 1.485635 5.578109 0.139125
 O 7.023339 8.847347 7.811894
 H 1.596744 8.597729 6.559035
 H 3.208820 8.282626 0.870967
 O 0.947895 1.938168 3.691336
 H 5.108760 6.732688 2.648465
 H 9.153609 9.021425 1.039256
 O 9.612407 1.163660 6.927742
 H 8.762641 3.792637 2.977381
 H 0.351447 4.311551 3.373308
 O 0.060231 5.530630 9.136823
 H 1.406404 5.661338 8.737094
 H 7.329728 4.451674 4.638162
 O 2.947144 3.832839 3.859126
 H 5.123953 6.027837 2.246836
 H 10.395321 3.017109 5.239015
 O 0.826114 5.867869 5.771755
 H 4.539392 7.431418 3.626182
 H 1.386089 2.199587 4.369517
 O 1.600196 3.535609 7.381600
 H 8.570260 2.875766 9.804038
 H 6.764942 6.532785 1.851348
 O 8.626627 9.146716 8.961641
 H 4.891483 2.024394 5.680778
 H 7.924120 1.653476 9.188846
 O 0.967041 3.624776 7.520785
 H 0.944778 1.739981 6.766533
 H 3.086337 8.992296 5.426948
 O 7.067689 3.665630 3.290070
 H 8.301946 2.501799 5.576235
 H 10.303150 3.796208 0.632331
 O 9.564031 10.279926 10.401135
 H 3.702620 5.142741 9.834600
 H 5.103436 6.499184 9.909708
 O 1.928550 10.045467 4.145187
 H 0.118517 5.088604 6.347333
 H 4.980977 4.728702 9.212700
 O 9.734761 8.930606 4.368893
 H 10.270502 5.468667 10.219859
 H 8.297576 9.613290 9.818638
 O 8.879907 9.380081 8.785450
 H 9.282825 4.422074 5.419348
 H 8.771015 3.758790 4.744326
 O 7.621928 0.273930 1.969096
 H 1.893588 5.607820 5.996092
 H 2.865792 1.711615 3.440995
 O 9.112313 5.448259 7.719098
 H 8.785127 10.431237 0.728408
 H 9.170737 3.776243 9.426660
 O 2.325048 0.189313 8.171231
 H 9.969534 8.453454 6.616388
 H 5.181921 0.141531 0.535855
 O 6.471086 3.893229 10.453369
 H 9.873621 3.436488 5.619798
 H 7.978317 5.281231 2.872303
 O 9.093782 6.115502 9.317017
 H 8.287764 3.992881 5.022089
 H 3.528681 6.666475 4.216664
 O 0.134010 3.161073 2.752667
 H 5.323935 7.272666 9.905785
 H 8.396873 7.319928 0.732378
 O 0.170558 0.308265 7.871099
 H 2.612536 7.053072 8.416691
 H 0.697640 3.513902 9.859442
 O 6.755120 5.474840 1.235923
 H 0.035271 4.236325 5.465427
 H 8.528927 7.473805 8.260600
 O 9.222992 4.032692 4.428601
 H 9.840117 4.871397 4.332105
 H 3.845813 5.898684 2.676981
 O 8.801523 5.282335 2.467446
 H 2.848043 5.982668 0.915089
 H 4.067749 6.069118 6.175543
 O 3.085518 7.913000 7.769131
 H 7.093067 3.392320 6.646171
 H 3.954400 6.975727 4.209183
 O 8.966378 2.097267 9.388697
 H 6.622506 7.447433 0.446744
 H 6.886780 3.882013 9.558005
 O 9.832190 2.692291 7.866911
 H 3.974718 6.415587 1.670982
 H 6.376969 7.986244 2.277442
 O 4.615373 4.557445 2.073070
 H 7.649001 8.861889 1.479292
 H 6.885991 3.417939 3.532081
 O 4.077850 1.139256 10.425972
 H 2.522287 5.147048 8.468503
 H 5.760092 9.798236 3.590043
 O 6.835806 2.812944 8.925163
 H 2.922942 2.104063 8.545691
 H 6.506408 8.880799 3.440174
K_POINTS
 1
0.0 0.0 0.0 1.0