&control
    calculation='md'
    pseudo_dir = './',
    outdir='./outputs',
    disk_io='high',
    dt=10,
    nstep=5000
    
/
&system
    ibrav= 1, celldm(1)=20.0, nat=  99, ntyp= 2,
    ecutwfc = 30.0, nosym=.true., occupations='smearing',
    smearing='m-v', degauss=0.025
/
&electrons
    conv_thr =  1.0d-8,
    mixing_beta = 0.7,
    scf_must_converge=.false.,
    electron_maxstep=500
/
&ions
    pot_extrapolation='second-order'
    wfc_extrapolation='second-order'
    ion_temperature = 'andersen'
    tempw = 1000

/
ATOMIC_SPECIES
 H  1.01  H.blyp-hgh.UPF
 O  16.0  O.blyp-hgh.UPF
ATOMIC_POSITIONS angstrom
 O 7.342418 2.350439 2.032352
 H 8.689187 3.968256 10.389848
 H 9.746386 0.910576 2.349526
 O 6.953207 2.900423 2.883049
 H 0.878984 7.490889 2.708018
 H 2.121920 0.993276 4.471300
 O 3.874504 10.423130 5.286378
 H 6.104378 5.457665 7.318388
 H 1.441568 0.906862 10.576674
 O 9.178500 3.865079 1.032145
 H 1.825803 5.893097 3.593126
 H 10.239965 9.588164 4.150269
 O 6.057706 6.662345 3.922231
 H 8.138303 6.868428 1.748759
 H 1.293078 6.749063 2.835225
 O 0.432768 6.634157 9.934673
 H 5.328818 6.160781 1.884959
 H 4.910640 0.053727 5.451571
 O 2.235802 3.226099 3.104069
 H 0.970345 7.163487 10.046994
 H 8.505738 2.564136 5.811427
 O 3.782558 7.682266 6.359617
 H 3.243931 9.941876 3.685086
 H 1.856143 7.898693 10.523046
 O 3.636900 8.624269 2.838872
 H 8.793580 8.217709 4.401602
 H 1.368190 8.172879 9.488126
 O 1.052167 7.068048 7.233544
 H 6.988589 2.554174 5.957134
 H 4.387140 10.568736 9.172656
 O 6.421172 10.149894 1.402200
 H 5.905210 1.402582 5.392570
 H 0.298375 7.762327 3.249157
 O 6.679098 10.053503 3.415151
 H 2.505945 3.447936 7.441406
 H 8.176397 9.039120 0.793922
 O 7.829174 7.452766 8.803589
 H 0.633137 9.459990 2.551185
 H 4.433187 4.515869 2.146221
 O 0.600438 9.658483 10.393377
 H 2.609208 0.700008 8.979533
 H 3.664491 2.063266 1.850875
 O 0.410510 7.041608 6.905313
 H 5.265402 7.450133 1.798305
 H 3.987976 1.622616 6.389580
 O 0.656644 1.403770 2.015515
 H 4.095743 1.088659 5.005021
 H 8.434047 9.485706 4.689955
 O 9.119484 6.042735 7.200732
 H 2.013813 8.704511 4.756825
 H 1.020583 4.588285 9.391268
 O 2.731426 8.782036 9.772143
 H 1.038135 10.357617 7.505995
 H 2.750976 0.134784 0.814875
 O 3.617351 6.266934 1.754099
 H 3.781763 0.264481 7.587191
 H 9.939059 0.481893 0.292105
 O 8.101144 9.557699 9.355412
 H 9.786856 9.982375 6.895766
 H 8.515988 4.427557 7.633904
 O 8.016997 0.081261 7.527470
 H 3.048377 2.946697 10.202099
 H 7.732973 7.141343 2.486855
 O 3.184889 2.923457 4.689500
 H 4.743282 5.721750 6.913908
 H 0.206138 3.684388 10.375654
 O 7.846826 9.006537 3.299896
 H 6.590352 8.263958 3.342146
 H 5.214398 5.663551 9.680615
 O 6.928382 10.577785 0.876292
 H 9.943896 1.201527 4.890723
 H 5.135604 6.726274 1.966378
 O 4.231508 9.422967 10.493232
 H 9.848957 3.255292 7.044929
 H 5.411425 1.764368 1.236383
 O 0.463783 4.155401 6.221760
 H 6.740683 7.586982 3.067188
 H 5.767098 9.664595 8.095993
 O 7.437032 1.381421 3.688054
 H 0.512705 1.391599 3.215632
 H 9.529276 7.767745 6.117312
 O 1.750292 6.192021 10.322099
 H 3.946421 10.411653 9.993391
 H 9.372260 2.253596 6.145649
 O 6.453301 3.634845 7.874155
 H 4.744597 7.930994 10.310631
 H 7.971303 2.370385 1.500435
 O 7.868253 2.088979 4.086590
 H 7.104006 4.189202 8.589317
 H 7.882173 7.329636 5.599366
 O 4.623489 9.346773 9.745731
 H 3.904228 9.835315 7.859864
 H 5.334680 1.139459 8.458784
 O 2.510173 3.858522 9.700322
 H 6.737748 9.219683 2.900162
 H 4.365423 3.660413 0.231830
 O 2.660503 1.579650 9.826741
 H 1.009034 2.229583 7.239394
 H 8.219668 5.210277 7.231479
K_POINTS
 1
0.0 0.0 0.0 1.0