&control
    calculation='md'
    pseudo_dir = './',
    outdir='./outputs',
    disk_io='high',
    dt=10,
    nstep=5000
    
/
&system
    ibrav= 1, celldm(1)=20.0, nat=  99, ntyp= 2,
    ecutwfc = 30.0, nosym=.true., occupations='smearing',
    smearing='m-v', degauss=0.025
/
&electrons
    conv_thr =  1.0d-8,
    mixing_beta = 0.7,
    scf_must_converge=.false.,
    electron_maxstep=500
/
&ions
    pot_extrapolation='second-order'
    wfc_extrapolation='second-order'
    ion_temperature = 'andersen'
    tempw = 1000

/
ATOMIC_SPECIES
 H  1.01  H.blyp-hgh.UPF
 O  16.0  O.blyp-hgh.UPF
ATOMIC_POSITIONS angstrom
 O 0.975626 3.920361 5.827916
 H 7.292290 5.703549 10.450331
 H 5.809417 7.764291 8.167848
 O 9.335833 4.700333 9.724655
 H 3.655778 3.024838 7.316222
 H 5.868695 3.741990 7.483093
 O 8.941772 5.297912 0.484814
 H 4.707033 5.823741 2.743626
 H 3.107031 4.994146 7.151621
 O 2.634665 7.669252 1.124368
 H 0.384071 2.496428 7.030653
 H 6.321960 0.630120 3.652243
 O 4.800037 1.879958 7.363727
 H 5.860562 1.876359 3.502398
 H 6.659760 6.051227 7.500508
 O 4.833059 0.532415 6.936144
 H 4.587090 7.163712 1.581543
 H 1.653103 7.492381 1.688466
 O 4.124919 2.538511 1.242947
 H 9.854317 6.368964 7.913286
 H 10.275184 4.976181 5.045568
 O 7.591197 9.168015 4.190831
 H 9.713813 5.022384 9.864768
 H 2.343070 4.619918 5.169472
 O 7.650373 1.655890 8.498148
 H 9.734787 7.467599 7.174819
 H 6.723427 4.531316 8.388753
 O 2.075259 1.322126 3.394662
 H 5.366397 6.662865 8.434633
 H 2.153550 1.936969 1.716096
 O 9.794875 0.196860 0.625435
 H 4.681974 3.907242 0.861816
 H 9.536382 4.194759 4.861092
 O 4.055617 7.561255 0.949106
 H 2.516653 8.022662 4.347626
 H 3.720102 1.286243 2.097113
 O 6.368760 2.380334 5.705787
 H 0.883638 1.468166 3.036151
 H 8.577501 5.137279 10.298319
 O 9.883507 0.891054 6.611945
 H 10.361656 5.822774 3.295136
 H 2.359242 8.733290 0.744713
 O 1.420581 2.258781 6.054640
 H 9.051942 7.189278 5.465850
 H 7.694829 3.855056 7.528172
 O 9.296792 7.778673 3.265777
 H 3.359859 1.341730 3.854126
 H 7.671315 7.920242 4.262064
 O 3.794691 6.811462 2.576267
 H 5.184457 0.195198 5.733828
 H 0.733313 5.641800 6.783813
 O 8.206081 6.631407 3.247464
 H 6.502230 3.033325 0.370714
 H 4.774640 8.125019 1.268188
 O 10.540139 2.326422 7.039345
 H 4.073596 9.840502 4.614351
 H 6.937434 2.754482 4.877283
 O 1.951915 1.053402 0.531735
 H 6.913911 10.501506 0.132061
 H 6.081812 10.019929 10.384459
 O 4.761157 2.836288 4.819918
 H 7.011640 2.168267 9.502413
 H 10.211587 5.050972 1.523244
 O 9.800074 7.150077 10.524642
 H 6.914981 4.837345 6.307476
 H 6.873639 9.818946 9.756750
 O 7.340401 10.026624 6.368801
 H 1.867920 0.311020 3.161333
 H 5.455884 3.271570 10.305713
 O 6.435976 0.692976 8.710185
 H 0.812841 3.100060 4.715410
 H 3.012916 6.006444 0.942013
 O 0.151485 3.230988 3.123420
 H 2.953803 8.564326 5.281572
 H 4.966530 5.268196 1.681035
 O 4.088561 3.079725 0.434327
 H 7.694160 5.073009 5.698228
 H 9.691188 3.811238 10.435139
 O 4.063625 5.690414 1.148770
 H 1.912965 8.805094 0.141914
 H 7.865175 5.788825 6.021249
 O 5.742191 6.759311 6.480189
 H 0.581472 2.259131 3.065071
 H 4.522101 5.004302 3.543421
 O 0.581762 5.480000 4.647792
 H 6.642196 1.860606 2.937214
 H 3.218643 0.161969 0.429853
 O 6.052025 4.994941 8.580020
 H 9.102136 5.514675 0.528901
 H 5.352013 2.862606 9.431219
 O 9.810702 6.114289 10.071965
 H 1.573544 1.332182 1.132365
 H 7.727289 7.777636 3.903431
 O 5.462409 0.569486 0.483923
 H 5.268703 1.763477 3.944701
 H 2.355091 10.178542 7.746149
 O 2.796850 7.416831 6.468255
 H 10.521969 7.458910 8.993195
 H 6.873623 10.379403 5.378855
K_POINTS
 1
0.0 0.0 0.0 1.0