&control
    calculation='md'
    pseudo_dir = './',
    outdir='./outputs',
    disk_io='high',
    dt=10,
    nstep=5000
    
/
&system
    ibrav= 1, celldm(1)=20.0, nat=  99, ntyp= 2,
    ecutwfc = 30.0, nosym=.true., occupations='smearing',
    smearing='m-v', degauss=0.025
/
&electrons
    conv_thr =  1.0d-8,
    mixing_beta = 0.7,
    scf_must_converge=.false.,
    electron_maxstep=500
/
&ions
    pot_extrapolation='second-order'
    wfc_extrapolation='second-order'
    ion_temperature = 'andersen'
    tempw = 1000

/
ATOMIC_SPECIES
 H  1.01  H.blyp-hgh.UPF
 O  16.0  O.blyp-hgh.UPF
ATOMIC_POSITIONS angstrom
 O 0.883688 7.134651 9.370358
 H 5.152010 9.473371 1.399589
 H 8.979863 6.931897 5.523280
 O 4.785408 5.712362 7.474450
 H 10.329061 2.755476 7.305242
 H 8.267962 5.403508 8.788051
 O 4.605342 0.460224 2.412973
 H 2.390905 9.618283 3.632655
 H 4.770850 4.523152 3.688484
 O 7.614553 4.580242 8.891006
 H 5.829711 1.469938 1.596947
 H 10.041144 0.656019 5.194558
 O 1.385824 6.865322 3.823781
 H 2.232987 5.106041 0.626123
 H 1.013138 0.001896 1.236663
 O 4.731951 7.738502 3.883715
 H 4.283466 6.936118 10.393992
 H 1.500615 0.820705 1.568444
 O 8.185096 1.410628 6.054384
 H 5.920861 7.538695 3.252235
 H 8.048951 8.496196 4.312671
 O 5.620063 0.930203 7.828557
 H 5.946691 4.603784 2.619569
 H 3.036878 9.475735 4.184235
 O 1.764541 1.165297 7.014077
 H 1.850650 4.643250 3.659714
 H 5.123525 6.260931 10.442177
 O 7.938998 8.752052 9.525056
 H 6.365971 10.420019 2.748231
 H 6.169949 4.071971 3.486077
 O 9.856113 8.193764 6.448986
 H 8.302686 0.772959 8.328557
 H 4.211751 1.401799 9.209041
 O 3.303767 3.427749 5.411482
 H 3.448141 3.324750 3.742468
 H 9.763393 2.940565 10.089169
 O 4.882260 2.990288 3.859273
 H 9.673845 4.333722 6.366683
 H 0.181544 6.211111 7.537502
 O 8.735165 6.968124 7.860747
 H 1.836303 6.783057 7.945274
 H 4.803841 9.202331 4.116076
 O 4.955882 8.280338 6.772378
 H 1.892995 10.508235 3.962041
 H 5.314830 3.142033 4.983249
 O 7.035521 10.030567 5.239936
 H 1.737173 4.187864 0.100524
 H 9.782960 4.451471 0.326818
 O 3.903439 5.347025 3.053903
 H 3.229300 7.462374 6.391961
 H 2.902889 6.019349 5.206031
 O 7.410868 1.126275 5.904670
 H 5.615776 3.376539 5.700484
 H 6.267976 0.179438 10.022681
 O 3.523281 8.107947 6.777114
 H 5.416561 9.359308 2.208154
 H 8.236131 3.763186 8.499381
 O 1.837328 8.289729 8.891564
 H 4.351327 3.204225 1.476080
 H 9.258791 0.770663 2.220163
 O 0.644036 8.385378 9.401776
 H 5.519420 3.330766 2.483841
 H 3.806470 4.984241 3.058112
 O 6.130506 1.101564 7.068756
 H 0.218811 1.958561 1.532474
 H 10.005642 0.567838 8.167388
 O 9.373862 1.334255 10.321700
 H 10.501063 4.728142 8.526793
 H 9.959016 9.227057 7.934681
 O 3.535000 1.311679 2.239213
 H 3.544256 5.133609 3.139725
 H 4.336597 9.027814 6.968026
 O 3.313602 2.912594 7.642211
 H 9.498403 1.173335 6.207756
 H 4.561866 5.996041 6.161034
 O 5.861566 8.730146 2.605714
 H 4.160200 4.240046 3.895515
 H 6.657371 0.144629 2.549042
 O 7.920109 1.330378 10.392839
 H 3.612463 0.714377 1.362730
 H 10.109354 1.421287 7.919885
 O 7.287659 10.051563 6.109064
 H 0.541899 0.990442 8.332456
 H 2.871376 7.531874 9.402234
 O 5.667834 7.910585 1.092804
 H 3.217340 7.259337 8.237524
 H 9.945556 2.729501 2.760866
 O 6.690722 3.513830 3.891552
 H 1.589394 7.641503 0.602776
 H 10.257629 3.143248 2.596859
 O 6.491770 4.358433 4.572754
 H 0.164847 6.100619 7.638560
 H 1.028404 8.803180 7.498001
 O 5.952966 3.220540 1.408862
 H 6.142982 0.315974 6.989342
 H 5.756864 7.447425 0.337855
 O 9.576929 6.987565 4.099013
 H 6.758749 6.112986 4.650832
 H 6.219846 8.474573 2.591551
K_POINTS
 1
0.0 0.0 0.0 1.0