&control
    calculation='md'
    pseudo_dir = './',
    outdir='./outputs',
    disk_io='high',
    dt=10,
    nstep=5000
    
/
&system
    ibrav= 1, celldm(1)=20.0, nat=  99, ntyp= 2,
    ecutwfc = 30.0, nosym=.true., occupations='smearing',
    smearing='m-v', degauss=0.025
/
&electrons
    conv_thr =  1.0d-8,
    mixing_beta = 0.7,
    scf_must_converge=.false.,
    electron_maxstep=500
/
&ions
    pot_extrapolation='second-order'
    wfc_extrapolation='second-order'
    ion_temperature = 'andersen'
    tempw = 1000

/
ATOMIC_SPECIES
 H  1.01  H.blyp-hgh.UPF
 O  16.0  O.blyp-hgh.UPF
ATOMIC_POSITIONS angstrom
 O 3.930135 6.188668 2.057387
 H 4.904349 0.437095 1.475399
 H 7.324142 3.484915 3.877113
 O 3.382429 9.713248 10.224745
 H 4.972689 0.288282 4.377144
 H 2.897002 10.111338 9.694410
 O 7.600992 0.883656 3.486537
 H 7.651308 7.560320 4.005152
 H 3.823736 6.209093 9.278499
 O 8.524182 2.971622 9.127276
 H 8.197693 5.682220 1.945411
 H 3.578197 3.041747 3.137110
 O 1.959138 1.843235 8.692305
 H 1.573669 9.284114 3.490194
 H 5.566591 2.156463 10.048327
 O 1.655772 7.713588 4.671894
 H 1.241687 5.272929 5.329997
 H 3.477088 7.270314 4.736481
 O 6.518326 7.065134 5.937747
 H 10.416409 8.862620 4.299153
 H 8.089953 4.643513 2.707963
 O 9.992259 4.643253 0.936372
 H 2.433637 9.363512 2.665312
 H 7.065376 9.177177 9.621001
 O 3.246196 10.007956 2.780761
 H 0.701303 0.664677 1.930134
 H 5.742463 7.805385 10.462725
 O 8.677926 6.816660 9.518913
 H 9.070331 0.146783 0.284733
 H 0.837520 4.402187 0.972207
 O 5.782165 8.635299 6.269856
 H 3.387896 9.251179 1.471616
 H 6.008523 6.548797 6.937593
 O 8.905612 2.780171 2.759128
 H 5.015788 1.665562 5.808286
 H 7.715250 8.287834 3.637074
 O 6.267281 3.477611 6.221175
 H 7.201942 8.838198 5.545153
 H 7.791316 8.047915 7.311649
 O 6.989793 6.977073 9.231687
 H 7.246894 7.935391 5.937855
 H 8.058683 3.537445 0.277483
 O 4.901714 7.627876 5.130792
 H 9.497184 0.887680 10.324010
 H 3.762457 5.555679 1.990528
 O 4.248867 10.074033 9.900332
 H 8.055123 2.885900 7.834616
 H 7.443572 4.848896 2.534106
 O 0.764090 3.990849 6.508228
 H 6.466273 4.201596 5.569550
 H 6.295387 7.672705 4.674543
 O 1.483196 10.004941 8.103581
 H 6.357647 7.336257 3.376030
 H 1.143584 5.863416 2.622124
 O 9.028925 3.765399 9.537248
 H 1.988722 9.747698 5.698805
 H 0.256336 1.061524 7.893170
 O 10.245389 7.517394 0.416982
 H 2.959323 10.074845 3.810700
 H 5.434344 9.121347 1.245452
 O 9.151479 8.451259 3.255009
 H 3.999577 7.666275 9.130103
 H 8.281675 1.573257 1.863036
 O 1.594214 9.340651 4.375764
 H 1.475270 3.473558 3.635469
 H 5.393206 1.665471 8.552623
 O 1.601521 9.618308 1.120708
 H 5.502968 4.094442 9.787350
 H 3.239349 1.804946 3.241414
 O 9.779424 9.165848 1.252312
 H 6.477126 8.694606 2.552607
 H 3.123143 6.916998 1.656047
 O 9.851289 1.581585 6.946118
 H 1.223730 9.679854 10.493267
 H 5.093632 7.589327 8.272714
 O 5.517172 0.396746 3.074810
 H 0.325878 3.323716 2.090484
 H 10.312572 6.081514 7.288160
 O 9.922043 10.042154 0.747682
 H 8.995588 3.523633 10.290697
 H 10.409200 5.812063 6.676597
 O 5.336903 10.392030 10.189149
 H 7.030420 2.206239 3.624580
 H 10.255145 4.711496 4.491706
 O 0.741323 6.712877 9.016384
 H 10.571270 2.096135 7.279616
 H 0.575647 4.227193 3.554888
 O 7.175482 5.980604 6.442472
 H 3.795966 9.640590 2.063937
 H 6.798945 2.816477 9.664588
 O 10.181877 1.499531 7.081912
 H 0.696858 4.745433 3.681084
 H 1.973329 5.000305 6.391021
 O 0.584355 4.851759 0.657803
 H 6.466573 5.516417 3.118167
 H 8.989506 6.846571 5.900430
 O 0.528596 3.157387 7.712253
 H 1.042563 5.632482 0.043487
 H 10.133091 9.880834 5.373005
K_POINTS
 1
0.0 0.0 0.0 1.0