&control
    calculation='md'
    pseudo_dir = './',
    outdir='./outputs',
    disk_io='high',
    dt=10,
    nstep=5000
    
/
&system
    ibrav= 1, celldm(1)=20.0, nat=  99, ntyp= 2,
    ecutwfc = 30.0, nosym=.true., occupations='smearing',
    smearing='m-v', degauss=0.025
/
&electrons
    conv_thr =  1.0d-8,
    mixing_beta = 0.7,
    scf_must_converge=.false.,
    electron_maxstep=500
/
&ions
    pot_extrapolation='second-order'
    wfc_extrapolation='second-order'
    ion_temperature = 'andersen'
    tempw = 1000

/
ATOMIC_SPECIES
 H  1.01  H.blyp-hgh.UPF
 O  16.0  O.blyp-hgh.UPF
ATOMIC_POSITIONS angstrom
 O 2.355724 4.508520 2.644365
 H 2.850203 3.717745 3.397760
 H 7.224490 7.054129 3.027532
 O 3.078970 7.510083 5.218609
 H 9.536625 9.081407 6.005854
 H 9.060096 9.359307 4.189455
 O 8.234965 0.835592 8.350362
 H 2.519316 2.633285 7.959418
 H 9.146424 6.285185 6.602445
 O 8.032236 4.798034 3.202368
 H 7.616654 7.573191 7.236832
 H 3.704411 4.697471 1.947437
 O 7.408916 4.327794 5.437442
 H 3.466843 10.407825 3.241857
 H 0.608990 5.252731 6.193316
 O 9.899267 9.394871 3.523066
 H 8.430245 2.843093 7.480280
 H 0.696838 5.789392 3.620051
 O 5.350251 8.607731 10.343892
 H 3.340894 2.628634 4.461668
 H 8.561671 0.332946 4.957099
 O 1.801011 7.403966 2.034603
 H 4.527136 7.692292 0.996594
 H 2.763270 1.661083 3.521166
 O 8.255449 6.251163 8.313389
 H 0.051430 8.803448 1.134343
 H 7.316310 7.776936 7.249250
 O 7.131467 8.314380 7.582452
 H 3.496210 9.911155 9.907856
 H 8.155835 6.392376 2.804796
 O 8.150089 10.494917 5.512990
 H 5.515674 2.817295 0.892471
 H 7.083814 2.977123 8.285466
 O 4.891174 10.073100 4.535497
 H 3.705721 7.778355 7.064265
 H 9.151680 7.167925 7.616062
 O 6.710631 10.499925 0.879081
 H 0.559334 8.595583 4.537944
 H 0.921737 1.702921 8.234011
 O 2.210612 7.586972 4.200350
 H 1.103337 1.093132 4.426573
 H 5.263666 6.360492 0.889116
 O 0.284233 5.943981 8.256827
 H 3.840230 1.089339 6.456644
 H 3.550992 7.312932 9.367457
 O 8.279894 4.400741 4.083225
 H 3.328402 7.870706 3.917037
 H 2.169588 8.140212 5.948709
 O 2.467898 10.380148 7.074963
 H 2.183512 2.453343 10.320216
 H 8.276189 3.156451 4.399226
 O 9.361953 2.918729 5.627633
 H 5.550649 9.765295 9.886932
 H 3.298389 3.358371 7.592740
 O 7.306399 9.029079 4.715990
 H 5.133401 1.114827 4.850055
 H 9.963982 5.465057 0.140650
 O 9.289453 5.221425 1.794302
 H 7.900764 3.799628 2.199664
 H 5.832979 0.567632 6.604815
 O 0.502123 8.010889 6.148549
 H 2.642247 8.682723 8.519817
 H 3.236276 7.055203 9.805648
 O 1.424172 1.344650 4.167072
 H 6.813211 9.736887 6.780245
 H 4.622030 3.653749 1.183641
 O 10.056609 5.322267 5.236285
 H 2.483340 4.471121 5.177106
 H 5.079044 2.760583 9.715093
 O 1.145215 6.992310 0.862157
 H 8.246430 5.540496 7.769352
 H 1.759743 6.361172 5.808456
 O 1.334719 7.699660 5.716616
 H 6.182428 9.344595 10.375385
 H 7.035238 0.636981 8.774907
 O 0.373308 9.700139 8.096907
 H 1.833978 5.200604 6.884379
 H 3.629904 1.920233 8.507655
 O 0.519166 10.242415 2.186234
 H 7.243621 9.994007 9.970777
 H 8.916874 1.224518 7.198173
 O 2.765785 7.785364 7.272465
 H 10.147431 1.076119 5.997515
 H 5.299345 7.022876 0.835862
 O 6.033746 9.621566 7.303258
 H 3.647809 1.019048 7.410151
 H 9.092309 9.281124 9.296705
 O 7.993930 9.188369 4.229128
 H 5.227961 1.950532 1.502934
 H 1.730101 9.499288 6.502372
 O 6.985521 4.220964 4.939058
 H 5.355764 2.749081 9.039720
 H 2.146538 9.923596 9.983094
 O 3.704997 6.607526 9.939777
 H 9.730036 9.837612 7.202623
 H 5.664890 9.242492 0.424099
 O 1.230628 7.895436 4.368018
 H 5.456509 0.092823 7.464319
 H 6.599849 6.572308 0.635138
K_POINTS
 1
0.0 0.0 0.0 1.0