&control
    calculation='md'
    pseudo_dir = './',
    outdir='./outputs',
    disk_io='high',
    dt=10,
    nstep=5000
    
/
&system
    ibrav= 1, celldm(1)=20.0, nat=  99, ntyp= 2,
    ecutwfc = 30.0, nosym=.true., occupations='smearing',
    smearing='m-v', degauss=0.025
/
&electrons
    conv_thr =  1.0d-8,
    mixing_beta = 0.7,
    scf_must_converge=.false.,
    electron_maxstep=500
/
&ions
    pot_extrapolation='second-order'
    wfc_extrapolation='second-order'
    ion_temperature = 'andersen'
    tempw = 1000

/
ATOMIC_SPECIES
 H  1.01  H.blyp-hgh.UPF
 O  16.0  O.blyp-hgh.UPF
ATOMIC_POSITIONS angstrom
 O 5.019168 0.086633 5.827719
 H 5.959086 8.788675 8.090702
 H 3.675264 5.252871 0.429133
 O 1.869405 0.938587 6.376371
 H 8.381175 8.945753 6.034860
 H 9.172565 3.889040 7.581309
 O 8.701141 0.616175 9.100531
 H 5.326226 1.920260 4.896582
 H 7.603588 1.755406 8.000555
 O 8.861399 2.930873 5.619216
 H 1.043875 1.430299 9.370299
 H 4.934203 3.029430 6.579538
 O 5.665841 6.503620 5.263146
 H 4.054932 2.747092 4.719849
 H 5.742099 8.271782 6.145157
 O 0.097915 8.957885 4.658272
 H 9.899885 9.149115 5.834619
 H 1.449710 6.527748 3.697739
 O 1.884921 10.392452 0.961836
 H 5.369112 4.231645 9.054821
 H 2.583308 3.131471 1.084415
 O 2.623066 2.460796 2.657533
 H 3.327086 0.971806 6.316452
 H 1.531227 8.349653 7.159006
 O 9.180344 8.556028 7.241312
 H 4.769579 7.187740 8.665304
 H 10.142849 8.644514 3.031240
 O 2.944241 7.229332 4.971597
 H 5.818234 7.273748 6.845449
 H 6.198597 5.577438 2.430091
 O 8.228493 10.519185 6.885977
 H 6.172389 5.882254 10.084100
 H 7.080929 7.840590 8.829450
 O 0.496533 8.138744 9.127040
 H 10.297847 2.235463 4.114066
 H 1.044246 3.834193 5.417480
 O 2.841149 0.649354 2.671181
 H 3.209793 9.849453 9.413848
 H 6.709798 6.803078 7.722991
 O 7.770207 3.856667 1.804783
 H 7.333058 5.975815 10.099075
 H 2.327761 9.649308 6.174683
 O 3.225367 10.540401 5.602072
 H 9.408918 0.251393 8.820215
 H 7.494695 2.463623 7.538399
 O 9.297872 0.951001 5.203478
 H 0.292516 1.410019 3.208817
 H 8.386965 2.971109 8.789378
 O 0.649191 7.342724 1.554986
 H 10.358706 3.681152 7.701449
 H 3.615206 10.099009 9.023243
 O 8.362429 10.191877 2.114374
 H 1.090385 3.386002 2.431361
 H 9.362971 3.277580 3.281398
 O 10.447237 4.489853 1.438178
 H 9.374587 5.122317 3.979757
 H 10.342024 5.502310 5.851504
 O 0.876765 6.439379 5.255349
 H 8.236204 3.762312 2.060962
 H 0.956893 1.132357 0.468552
 O 9.317282 5.510770 2.494018
 H 1.313781 3.448745 5.290503
 H 6.134386 9.506877 9.247218
 O 0.069778 7.188277 9.481948
 H 5.044991 6.462262 6.751997
 H 2.031847 7.256679 4.632269
 O 1.301936 1.433814 8.717932
 H 0.390229 6.498251 3.249997
 H 9.586887 9.887943 8.577757
 O 2.556768 5.887648 5.022906
 H 3.975697 8.791669 7.947678
 H 10.059192 8.909686 8.461923
 O 6.552556 1.339319 4.837490
 H 0.959683 2.208489 9.078455
 H 8.209921 8.084386 5.127353
 O 1.082533 7.005127 3.802436
 H 10.364203 2.396767 5.402845
 H 8.421462 6.975347 2.917527
 O 9.397199 6.066173 6.055352
 H 6.762648 0.745423 1.485588
 H 5.655001 8.828966 3.953113
 O 2.069689 4.544263 7.873589
 H 4.793066 10.489400 9.295107
 H 1.024809 0.098888 4.554271
 O 8.815305 2.658588 2.767696
 H 1.977651 4.880605 2.387176
 H 6.784160 4.491143 6.720600
 O 7.311788 4.801136 7.916980
 H 10.374079 8.962468 9.588816
 H 2.024543 6.518719 1.514462
 O 6.880459 5.666024 6.543891
 H 0.124982 6.575707 4.963498
 H 5.989503 0.820149 7.411640
 O 9.555371 4.732435 7.074580
 H 2.647244 5.921018 9.130004
 H 6.489621 4.667997 3.770264
 O 2.174477 4.224596 0.523431
 H 7.178001 7.500647 6.282111
 H 2.398492 10.170707 7.973173
K_POINTS
 1
0.0 0.0 0.0 1.0