&control
    calculation='md'
    pseudo_dir = './',
    outdir='./outputs',
    disk_io='high',
    dt=10,
    nstep=5000
    
/
&system
    ibrav= 1, celldm(1)=20.0, nat=  99, ntyp= 2,
    ecutwfc = 30.0, nosym=.true., occupations='smearing',
    smearing='m-v', degauss=0.025
/
&electrons
    conv_thr =  1.0d-8,
    mixing_beta = 0.7,
    scf_must_converge=.false.,
    electron_maxstep=500
/
&ions
    pot_extrapolation='second-order'
    wfc_extrapolation='second-order'
    ion_temperature = 'andersen'
    tempw = 1000

/
ATOMIC_SPECIES
 H  1.01  H.blyp-hgh.UPF
 O  16.0  O.blyp-hgh.UPF
ATOMIC_POSITIONS angstrom
 O 0.361515 0.015981 5.155235
 H 5.398776 4.652694 7.256212
 H 8.763527 7.034640 2.724326
 O 8.258758 5.443771 7.768138
 H 7.952409 0.195526 7.278008
 H 2.074454 4.082062 3.027568
 O 3.664559 8.204110 7.880037
 H 0.776825 2.116529 9.433142
 H 8.511413 0.449092 9.875170
 O 8.387024 8.876206 8.317947
 H 9.581286 9.192898 1.196782
 H 2.938598 3.145534 6.303877
 O 5.922856 10.156913 2.681238
 H 8.454886 5.798162 1.682182
 H 2.536260 8.767814 3.614796
 O 1.399897 5.047971 5.766770
 H 5.394853 6.660687 2.304054
 H 6.779635 9.177792 0.496136
 O 2.523443 4.348215 0.154143
 H 8.826097 7.136386 1.818862
 H 0.229747 1.638198 4.289594
 O 8.527698 7.591528 5.398998
 H 4.871929 4.658574 5.870883
 H 2.557638 3.968518 5.082972
 O 9.847819 1.024398 6.573564
 H 2.240206 0.815597 1.138771
 H 9.184071 0.525384 7.261982
 O 7.687697 2.492105 4.645680
 H 5.597153 4.972329 6.868445
 H 7.373688 1.324221 9.624708
 O 7.951520 0.606919 2.611141
 H 7.388730 2.429149 4.142053
 H 4.608272 2.284505 7.059803
 O 3.643000 5.998782 10.162436
 H 2.512746 4.000450 10.002962
 H 0.308637 0.927919 4.247857
 O 0.161276 3.712779 1.264915
 H 0.437123 9.179247 0.353430
 H 6.534436 6.257881 6.412924
 O 8.653888 4.342169 3.005015
 H 2.205192 3.836348 7.633517
 H 4.154682 7.362846 8.034134
 O 6.126885 6.072369 5.490952
 H 8.284624 1.562594 4.852893
 H 4.412387 4.798444 3.870626
 O 7.276562 0.425488 1.501357
 H 8.692209 8.960460 7.338460
 H 10.442125 9.272156 2.762372
 O 5.649509 2.492806 8.157601
 H 1.686568 4.903909 10.126950
 H 8.738714 3.959822 4.016461
 O 1.084317 6.999325 9.301012
 H 5.017525 2.032981 8.473232
 H 0.561131 0.735308 0.787605
 O 7.477396 8.562915 6.738825
 H 7.616115 6.910342 6.451261
 H 3.977357 5.667247 8.416780
 O 8.570934 0.978457 7.420982
 H 1.173005 10.363579 9.310049
 H 6.123278 6.234317 1.522822
 O 10.478818 6.631153 10.359513
 H 9.089201 3.445135 6.052623
 H 7.461554 3.507567 10.279156
 O 6.267601 6.951546 6.324672
 H 4.593943 0.762596 7.027117
 H 2.332880 3.608091 3.254954
 O 6.465263 1.307043 1.278262
 H 2.781943 1.270570 2.430065
 H 7.589557 0.593823 3.545466
 O 6.424483 4.229093 0.551758
 H 0.169557 4.832554 6.819739
 H 6.083740 3.744570 2.286481
 O 3.722484 8.992786 10.032643
 H 8.754108 9.943793 9.213774
 H 8.579697 8.934786 9.640523
 O 10.191188 7.629633 4.537704
 H 1.022651 2.840219 2.498880
 H 9.543919 5.361407 6.699827
 O 9.507083 7.137951 9.672900
 H 0.297525 4.215641 2.824508
 H 7.638101 9.013824 3.987865
 O 8.574657 7.587304 1.807264
 H 6.603326 9.587151 2.139705
 H 3.083910 9.624766 5.286210
 O 1.562674 9.693805 0.735130
 H 1.349249 6.786675 5.300908
 H 2.763923 9.588926 2.861567
 O 5.295324 0.345460 2.601374
 H 4.752943 8.694121 3.812376
 H 3.194031 3.440101 3.043658
 O 9.956427 4.231395 9.158237
 H 3.675905 5.399118 1.108716
 H 2.757425 3.220644 9.465785
 O 0.883338 1.102226 1.616902
 H 4.213612 8.666471 1.284024
 H 3.005963 4.113474 5.922107
 O 4.752093 3.810241 10.060106
 H 5.672507 1.078232 4.844733
 H 8.445670 10.026065 8.834865
K_POINTS
 1
0.0 0.0 0.0 1.0