&control
    calculation='md'
    pseudo_dir = './',
    outdir='./outputs',
    disk_io='high',
    dt=10,
    nstep=5000
    
/
&system
    ibrav= 1, celldm(1)=20.0, nat=  99, ntyp= 2,
    ecutwfc = 30.0, nosym=.true., occupations='smearing',
    smearing='m-v', degauss=0.025
/
&electrons
    conv_thr =  1.0d-8,
    mixing_beta = 0.7,
    scf_must_converge=.false.,
    electron_maxstep=500
/
&ions
    pot_extrapolation='second-order'
    wfc_extrapolation='second-order'
    ion_temperature = 'andersen'
    tempw = 1000

/
ATOMIC_SPECIES
 H  1.01  H.blyp-hgh.UPF
 O  16.0  O.blyp-hgh.UPF
ATOMIC_POSITIONS angstrom
 O 1.446769 10.301935 6.044522
 H 8.155009 2.385841 2.930708
 H 10.409461 4.414648 0.958265
 O 6.569080 4.006312 10.457692
 H 9.602824 3.744721 5.147150
 H 1.694543 7.398862 7.808999
 O 9.950123 3.065138 5.961820
 H 6.408005 6.666531 0.220723
 H 4.721023 7.000056 8.780660
 O 9.191650 0.080628 6.065264
 H 7.025492 6.956970 5.003690
 H 2.776558 3.631056 7.326498
 O 9.166711 4.393323 3.097749
 H 4.686784 0.527016 3.785825
 H 3.461988 2.231224 7.090962
 O 1.096189 8.579095 4.080826
 H 1.008297 10.450282 5.106829
 H 4.555623 8.458955 0.043217
 O 4.914738 5.716158 1.731209
 H 5.647626 8.481277 5.543986
 H 9.184768 6.818908 1.518695
 O 9.353067 3.360878 7.968791
 H 4.728197 5.787121 1.419311
 H 4.063779 2.831282 5.984764
 O 0.510884 1.220616 10.485950
 H 6.430700 2.140792 8.334924
 H 6.242245 2.009010 0.106994
 O 10.430106 4.428227 5.168579
 H 4.059235 2.153249 3.396775
 H 9.659851 8.464527 2.988614
 O 2.068998 8.991120 6.051850
 H 10.071918 6.191692 6.334563
 H 1.833624 0.627827 4.453253
 O 6.113891 10.439666 8.002040
 H 8.547452 9.205025 6.491400
 H 7.293331 7.538452 8.911535
 O 6.561726 9.820305 6.227742
 H 0.596441 9.309800 0.259799
 H 7.201811 4.388331 2.675753
 O 1.128258 0.952225 6.705382
 H 1.688413 10.259917 9.441994
 H 1.065399 0.336631 4.537021
 O 7.064984 4.134889 1.384475
 H 4.505155 2.284006 0.687223
 H 4.004410 1.391424 3.650093
 O 10.339037 0.088481 8.372406
 H 9.916275 5.561210 3.579162
 H 7.731596 6.109277 9.167615
 O 4.522792 0.209709 4.884987
 H 7.788769 1.949839 2.730556
 H 1.966433 0.491931 9.365476
 O 5.691315 8.797975 4.265092
 H 9.953731 9.009843 0.013771
 H 9.168432 8.919912 3.535540
 O 6.121794 6.866305 0.307289
 H 1.532330 7.537805 0.066947
 H 10.333991 0.184414 2.256391
 O 8.987452 7.872352 10.034208
 H 0.262457 7.446682 1.736505
 H 1.411364 2.585096 0.038011
 O 3.885003 3.473270 8.597735
 H 6.210887 8.149095 6.571861
 H 9.870389 0.212218 0.374878
 O 7.613608 8.590760 3.489904
 H 9.829069 1.233622 4.935853
 H 3.277511 7.235119 9.453295
 O 7.524222 5.583571 7.420623
 H 3.055324 1.291335 5.044865
 H 9.460149 3.933068 7.221296
 O 9.721995 7.289930 9.526430
 H 1.298890 2.803500 5.724603
 H 4.526133 10.530408 2.702944
 O 6.350655 2.474800 4.919110
 H 9.720166 0.188138 5.346663
 H 10.118952 10.158974 1.566505
 O 4.690632 9.452413 0.246758
 H 8.685139 7.747106 7.027888
 H 0.762175 3.130406 0.155945
 O 4.776961 0.334433 1.305721
 H 9.413014 4.168610 0.536057
 H 10.556398 4.367823 4.609839
 O 4.923977 1.319094 5.182340
 H 1.561519 8.550314 7.160491
 H 1.685066 8.226679 9.569189
 O 9.458203 7.121425 8.108478
 H 5.878756 8.029557 8.932626
 H 1.873746 3.580381 7.817904
 O 3.761171 0.971290 7.601183
 H 4.686629 5.446669 4.468341
 H 3.166227 4.342643 8.861540
 O 5.616601 2.413822 6.965686
 H 8.692176 4.058095 8.282677
 H 0.279528 4.607206 8.765066
 O 9.073128 2.045108 2.095315
 H 9.643073 5.548334 3.045642
 H 8.483397 7.432280 2.284809
 O 3.422033 3.792569 9.630906
 H 5.877258 5.123792 0.714500
 H 2.359491 0.222237 5.902272
K_POINTS
 1
0.0 0.0 0.0 1.0