&control
    calculation='md'
    pseudo_dir = './',
    outdir='./outputs',
    disk_io='high',
    dt=10,
    nstep=5000
    
/
&system
    ibrav= 1, celldm(1)=20.0, nat=  30, ntyp= 2,
    ecutwfc = 30.0, nosym=.true., occupations='smearing',
    smearing='m-v', degauss=0.025
/
&electrons
    conv_thr =  1.0d-8,
    mixing_beta = 0.7,
    scf_must_converge=.false.,
    electron_maxstep=500
/
&ions
    pot_extrapolation='second-order'
    wfc_extrapolation='second-order'
    ion_temperature = 'andersen'
    tempw = 1000

/
ATOMIC_SPECIES
 H  1.01  H.blyp-hgh.UPF
 O  16.0  O.blyp-hgh.UPF
ATOMIC_POSITIONS angstrom
 O 10.440872 2.938221 1.534402
 H 6.679541 7.158039 6.799171
 H 7.201525 5.831386 5.622655
 O 8.695546 9.504296 1.495532
 H 0.497545 1.761924 9.734614
 H 10.133720 0.161837 2.820199
 O 1.527094 9.352446 3.481749
 H 4.462001 7.338583 4.985911
 H 0.153597 2.516343 5.051406
 O 8.264747 2.454656 2.511463
 H 1.687204 4.772524 4.234471
 H 2.224368 8.626821 2.396088
 O 0.115731 6.942273 5.223746
 H 7.983242 3.251800 4.741409
 H 5.020122 6.064407 2.958567
 O 6.510877 6.127012 8.847057
 H 9.546678 2.971581 6.832108
 H 1.692742 7.623149 7.440212
 O 0.041243 5.480951 3.185499
 H 5.833178 6.908879 10.012594
 H 9.074961 0.696938 2.846654
 O 8.823691 6.184159 1.207022
 H 1.142779 3.116209 1.078171
 H 0.254867 3.895424 4.119001
 O 6.888664 5.712075 1.328859
 H 9.693839 6.915757 3.555231
 H 1.198843 4.188668 8.789750
 O 1.267747 6.566175 10.415979
 H 9.029790 1.746180 3.625038
 H 6.964250 6.375345 1.482839
K_POINTS
 1
0.0 0.0 0.0 1.0