&control
    calculation='md'
    pseudo_dir = './',
    outdir='./outputs',
    disk_io='high',
    dt=10,
    nstep=5000
    
/
&system
    ibrav= 1, celldm(1)=20.0, nat=  30, ntyp= 2,
    ecutwfc = 30.0, nosym=.true., occupations='smearing',
    smearing='m-v', degauss=0.025
/
&electrons
    conv_thr =  1.0d-8,
    mixing_beta = 0.7,
    scf_must_converge=.false.,
    electron_maxstep=500
/
&ions
    pot_extrapolation='second-order'
    wfc_extrapolation='second-order'
    ion_temperature = 'andersen'
    tempw = 1000

/
ATOMIC_SPECIES
 H  1.01  H.blyp-hgh.UPF
 O  16.0  O.blyp-hgh.UPF
ATOMIC_POSITIONS angstrom
 O 6.123706 7.158503 3.195106
 H 2.259511 8.011067 3.167800
 H 8.555425 0.622475 0.752575
 O 6.392841 1.320632 6.432035
 H 4.914440 7.700185 2.203692
 H 6.643391 9.199990 0.811546
 O 3.553728 0.599467 10.029516
 H 4.475786 5.449804 7.871287
 H 4.947964 0.733106 2.498022
 O 8.701678 6.158354 0.410713
 H 6.326562 10.190780 8.037644
 H 0.336320 6.763023 0.660482
 O 8.561404 8.123091 4.220411
 H 9.562430 4.762010 9.740357
 H 3.060354 6.863616 5.831379
 O 3.563239 0.468495 1.200908
 H 0.009686 3.905900 7.428926
 H 6.736044 3.967967 3.693019
 O 4.284155 0.437725 5.369630
 H 8.913400 7.665138 8.087467
 H 0.250601 2.266003 7.741487
 O 0.083810 7.303008 0.040576
 H 2.572608 1.601428 3.316505
 H 8.570817 7.215892 7.158427
 O 3.157623 7.052506 4.425272
 H 2.869526 4.194746 0.547530
 H 2.575398 8.275860 3.789431
 O 8.483657 8.038814 8.105882
 H 1.340301 3.170730 0.117436
 H 4.351828 7.035878 8.898361
K_POINTS
 1
0.0 0.0 0.0 1.0