&control
    calculation='md'
    pseudo_dir = './',
    outdir='./outputs',
    disk_io='high',
    dt=10,
    nstep=5000
    
/
&system
    ibrav= 1, celldm(1)=20.0, nat=  30, ntyp= 2,
    ecutwfc = 30.0, nosym=.true., occupations='smearing',
    smearing='m-v', degauss=0.025
/
&electrons
    conv_thr =  1.0d-8,
    mixing_beta = 0.7,
    scf_must_converge=.false.,
    electron_maxstep=500
/
&ions
    pot_extrapolation='second-order'
    wfc_extrapolation='second-order'
    ion_temperature = 'andersen'
    tempw = 1000

/
ATOMIC_SPECIES
 H  1.01  H.blyp-hgh.UPF
 O  16.0  O.blyp-hgh.UPF
ATOMIC_POSITIONS angstrom
 O 4.774772 0.602609 8.652236
 H 4.473677 7.009134 2.851033
 H 3.059271 8.536691 3.273974
 O 8.262991 4.077690 10.497065
 H 3.267031 7.172073 2.176459
 H 1.453907 1.316141 7.496508
 O 1.282022 1.357135 7.554955
 H 8.903026 1.835333 5.448625
 H 6.221446 7.814542 1.229807
 O 10.213899 10.357235 4.056240
 H 10.237921 0.538310 8.695278
 H 9.846318 10.194962 8.152872
 O 3.673263 6.030145 4.343567
 H 1.861835 1.401107 7.170540
 H 2.091743 1.898938 0.955655
 O 0.868254 9.226157 0.436612
 H 4.358596 3.090948 8.487552
 H 7.701759 10.344513 6.573692
 O 6.190228 7.153961 5.465552
 H 0.278459 5.228835 5.733279
 H 4.127507 4.892357 5.872108
 O 5.355283 9.218744 7.316836
 H 5.772674 3.947477 1.168754
 H 7.085038 4.345108 0.251518
 O 5.291021 7.592276 5.316018
 H 10.563295 5.645055 6.705770
 H 4.665287 6.008668 7.023968
 O 8.058285 0.907174 1.825136
 H 10.337110 0.081695 6.666129
 H 5.349506 8.045692 9.666773
K_POINTS
 1
0.0 0.0 0.0 1.0