&control
    calculation='md'
    pseudo_dir = './',
    outdir='./outputs',
    disk_io='high',
    dt=10,
    nstep=5000
    
/
&system
    ibrav= 1, celldm(1)=20.0, nat=  30, ntyp= 2,
    ecutwfc = 30.0, nosym=.true., occupations='smearing',
    smearing='m-v', degauss=0.025
/
&electrons
    conv_thr =  1.0d-8,
    mixing_beta = 0.7,
    scf_must_converge=.false.,
    electron_maxstep=500
/
&ions
    pot_extrapolation='second-order'
    wfc_extrapolation='second-order'
    ion_temperature = 'andersen'
    tempw = 1000

/
ATOMIC_SPECIES
 H  1.01  H.blyp-hgh.UPF
 O  16.0  O.blyp-hgh.UPF
ATOMIC_POSITIONS angstrom
 O 6.342394 1.884622 2.021787
 H 4.129775 5.062781 6.228667
 H 6.076214 3.077302 6.667170
 O 5.678633 10.519976 10.221974
 H 10.213863 2.741632 7.050441
 H 5.123999 8.056145 8.834321
 O 7.626085 3.599995 6.631545
 H 8.537794 4.881013 3.916608
 H 7.294745 8.125135 6.813520
 O 7.688828 2.699860 8.674366
 H 1.392524 6.307374 7.228289
 H 2.500418 2.631024 7.822152
 O 8.871809 9.254455 3.701808
 H 3.509877 7.179812 0.312099
 H 4.222884 0.222294 3.870143
 O 4.225539 7.361695 7.682438
 H 9.332907 2.079703 4.208734
 H 7.535246 2.404442 10.577189
 O 2.379943 4.128147 4.245238
 H 1.331857 8.453990 0.814139
 H 4.682070 4.428216 3.879113
 O 3.339240 5.339944 8.250707
 H 9.411187 7.833691 2.036367
 H 2.764530 10.369329 9.820776
 O 5.697863 5.953910 3.161657
 H 5.575841 2.866271 4.482116
 H 8.381533 8.088093 6.208202
 O 3.124813 9.848023 1.315639
 H 4.574321 4.501614 4.199119
 H 2.226993 0.825900 8.220645
K_POINTS
 1
0.0 0.0 0.0 1.0