&control
    calculation='md'
    pseudo_dir = './',
    outdir='./outputs',
    disk_io='high',
    dt=10,
    nstep=5000
    
/
&system
    ibrav= 1, celldm(1)=20.0, nat=  30, ntyp= 2,
    ecutwfc = 30.0, nosym=.true., occupations='smearing',
    smearing='m-v', degauss=0.025
/
&electrons
    conv_thr =  1.0d-8,
    mixing_beta = 0.7,
    scf_must_converge=.false.,
    electron_maxstep=500
/
&ions
    pot_extrapolation='second-order'
    wfc_extrapolation='second-order'
    ion_temperature = 'andersen'
    tempw = 1000

/
ATOMIC_SPECIES
 H  1.01  H.blyp-hgh.UPF
 O  16.0  O.blyp-hgh.UPF
ATOMIC_POSITIONS angstrom
 O 8.658252 3.781537 3.815051
 H 5.789296 3.357064 8.364643
 H 4.880372 8.250856 9.774935
 O 9.373001 3.648471 3.853318
 H 8.510890 1.356794 3.676667
 H 8.979777 4.031081 9.966500
 O 8.878594 4.804470 3.455385
 H 1.296876 10.395872 0.147014
 H 3.757699 3.676619 8.103048
 O 2.212247 5.751149 0.925296
 H 6.447728 4.670570 3.004848
 H 9.460539 4.441455 9.327883
 O 4.408782 9.629166 10.114208
 H 9.008983 3.295433 0.418282
 H 8.742909 2.742425 0.356695
 O 6.868810 4.310746 3.578286
 H 1.621943 3.394556 5.336858
 H 8.151774 2.200312 1.138657
 O 1.874053 6.955341 1.547591
 H 5.709539 9.237314 4.687657
 H 10.011982 8.531870 8.742738
 O 4.062454 1.916959 4.840228
 H 0.832160 7.517257 7.836555
 H 9.337530 10.576820 7.663179
 O 8.879190 5.390565 2.392022
 H 9.817187 1.601591 6.412901
 H 5.175889 6.497967 8.847936
 O 9.237773 8.487180 8.376376
 H 0.200063 6.123432 0.623429
 H 6.532996 2.679948 1.358239
K_POINTS
 1
0.0 0.0 0.0 1.0