&control
    calculation='md'
    pseudo_dir = './',
    outdir='./outputs',
    disk_io='high',
    dt=10,
    nstep=5000
    
/
&system
    ibrav= 1, celldm(1)=20.0, nat=  30, ntyp= 2,
    ecutwfc = 30.0, nosym=.true., occupations='smearing',
    smearing='m-v', degauss=0.025
/
&electrons
    conv_thr =  1.0d-8,
    mixing_beta = 0.7,
    scf_must_converge=.false.,
    electron_maxstep=500
/
&ions
    pot_extrapolation='second-order'
    wfc_extrapolation='second-order'
    ion_temperature = 'andersen'
    tempw = 1000

/
ATOMIC_SPECIES
 H  1.01  H.blyp-hgh.UPF
 O  16.0  O.blyp-hgh.UPF
ATOMIC_POSITIONS angstrom
 O 2.092176 7.155970 4.919322
 H 6.002241 4.566397 0.516544
 H 3.587821 3.707410 10.299294
 O 2.133706 0.575732 0.197461
 H 2.595045 2.782981 3.412740
 H 2.392112 4.717079 0.649415
 O 0.564114 9.018982 3.199590
 H 6.396770 3.578318 4.088475
 H 3.512847 1.829404 8.604765
 O 9.683662 1.494932 1.490572
 H 3.552041 8.265409 5.375836
 H 10.526861 4.436345 3.235038
 O 0.811114 5.664835 7.959346
 H 8.432820 1.430463 3.270096
 H 2.474801 1.790319 6.866560
 O 4.199387 2.070608 4.029988
 H 10.301070 4.722188 9.442266
 H 6.461357 5.337975 0.736063
 O 2.141039 7.588319 1.697744
 H 3.540296 5.323322 2.884920
 H 4.398660 7.897490 8.584681
 O 8.999024 2.866396 2.580241
 H 10.575579 8.898962 4.263572
 H 1.847147 2.363585 2.851435
 O 8.221643 5.600839 10.378503
 H 2.017332 3.114424 5.852788
 H 2.115861 5.785087 6.605909
 O 7.111862 9.456824 3.233252
 H 6.441026 6.765738 5.894844
 H 9.216485 0.756754 6.180418
K_POINTS
 1
0.0 0.0 0.0 1.0