&control
    calculation='md'
    pseudo_dir = './',
    outdir='./outputs',
    disk_io='high',
    dt=10,
    nstep=5000
    
/
&system
    ibrav= 1, celldm(1)=20.0, nat=  30, ntyp= 2,
    ecutwfc = 30.0, nosym=.true., occupations='smearing',
    smearing='m-v', degauss=0.025
/
&electrons
    conv_thr =  1.0d-8,
    mixing_beta = 0.7,
    scf_must_converge=.false.,
    electron_maxstep=500
/
&ions
    pot_extrapolation='second-order'
    wfc_extrapolation='second-order'
    ion_temperature = 'andersen'
    tempw = 1000

/
ATOMIC_SPECIES
 H  1.01  H.blyp-hgh.UPF
 O  16.0  O.blyp-hgh.UPF
ATOMIC_POSITIONS angstrom
 O 6.316628 10.451859 6.225523
 H 3.692793 2.737838 5.488429
 H 1.962803 7.072797 9.584939
 O 10.041317 0.470763 5.803852
 H 7.541925 4.687950 5.122341
 H 1.393473 4.909368 6.089544
 O 4.770421 9.599645 6.886961
 H 8.474616 0.072239 4.444894
 H 4.373455 5.672267 6.552615
 O 2.382736 8.996068 2.774723
 H 1.285309 7.726252 2.926839
 H 10.069665 6.772039 0.558225
 O 4.390985 1.206365 2.579199
 H 5.537975 5.428049 7.214229
 H 10.178818 4.455449 9.672991
 O 6.439288 2.688021 8.786596
 H 3.263825 4.234019 0.253424
 H 7.758631 0.907750 10.041962
 O 7.801447 7.282781 8.460004
 H 5.704528 5.564735 8.832204
 H 2.864052 2.881028 8.124053
 O 9.502214 8.450821 1.921503
 H 10.237844 7.026302 6.311422
 H 1.351114 4.139934 4.569856
 O 2.140685 4.245844 8.656329
 H 5.494954 8.394247 7.140111
 H 5.099546 7.356889 8.938284
 O 6.195789 2.269477 8.932781
 H 1.056137 6.086047 0.141476
 H 10.055669 3.133472 5.827716
K_POINTS
 1
0.0 0.0 0.0 1.0