&control
    calculation='md'
    pseudo_dir = './',
    outdir='./outputs',
    disk_io='high',
    dt=10,
    nstep=5000
    
/
&system
    ibrav= 1, celldm(1)=20.0, nat=  30, ntyp= 2,
    ecutwfc = 30.0, nosym=.true., occupations='smearing',
    smearing='m-v', degauss=0.025
/
&electrons
    conv_thr =  1.0d-8,
    mixing_beta = 0.7,
    scf_must_converge=.false.,
    electron_maxstep=500
/
&ions
    pot_extrapolation='second-order'
    wfc_extrapolation='second-order'
    ion_temperature = 'andersen'
    tempw = 1000

/
ATOMIC_SPECIES
 H  1.01  H.blyp-hgh.UPF
 O  16.0  O.blyp-hgh.UPF
ATOMIC_POSITIONS angstrom
 O 1.185446 7.424392 3.067797
 H 1.258528 6.892754 7.429551
 H 10.561273 10.097803 6.321479
 O 6.123678 9.598884 0.779120
 H 8.851381 8.694136 4.216539
 H 1.371266 8.205340 8.693964
 O 2.226712 4.303575 7.710138
 H 3.892345 3.371229 9.352642
 H 4.483475 2.407561 10.423055
 O 3.494877 3.341061 0.196841
 H 6.189214 1.651900 7.593649
 H 7.851891 5.049313 9.305880
 O 10.497324 5.063628 2.166540
 H 1.774263 6.124617 0.925884
 H 6.258041 3.912100 10.063219
 O 8.749176 7.667461 8.116257
 H 8.796888 8.116269 7.540360
 H 5.548317 4.774792 4.653385
 O 8.898454 4.557946 0.056769
 H 7.518144 0.797912 0.851628
 H 8.882643 5.175862 6.916452
 O 3.762166 7.435922 5.239928
 H 0.867547 9.340049 9.888043
 H 3.312297 10.359266 8.583647
 O 9.984342 4.249992 6.646927
 H 0.766031 5.394594 0.428446
 H 6.653714 0.917177 1.406619
 O 4.793976 5.827564 9.064797
 H 6.483550 3.370182 8.387322
 H 3.481761 0.144897 1.198613
K_POINTS
 1
0.0 0.0 0.0 1.0