&control
    calculation='md'
    pseudo_dir = './',
    outdir='./outputs',
    disk_io='high',
    dt=10,
    nstep=5000
    
/
&system
    ibrav= 1, celldm(1)=20.0, nat=  30, ntyp= 2,
    ecutwfc = 30.0, nosym=.true., occupations='smearing',
    smearing='m-v', degauss=0.025
/
&electrons
    conv_thr =  1.0d-8,
    mixing_beta = 0.7,
    scf_must_converge=.false.,
    electron_maxstep=500
/
&ions
    pot_extrapolation='second-order'
    wfc_extrapolation='second-order'
    ion_temperature = 'andersen'
    tempw = 1000

/
ATOMIC_SPECIES
 H  1.01  H.blyp-hgh.UPF
 O  16.0  O.blyp-hgh.UPF
ATOMIC_POSITIONS angstrom
 O 1.061554 9.769609 8.252817
 H 3.636775 0.896697 1.209124
 H 9.970353 5.638983 1.905852
 O 0.278296 10.223193 6.052662
 H 0.311068 2.131994 5.246864
 H 9.964688 10.258032 9.374311
 O 8.819967 3.444296 8.973613
 H 2.824773 8.256523 10.362033
 H 5.194270 5.885899 2.240401
 O 8.733747 6.262597 4.226529
 H 6.485940 6.927362 3.862099
 H 0.009156 7.066743 9.927323
 O 2.598703 6.050332 7.398226
 H 1.754073 1.120484 9.624806
 H 8.905907 10.419890 4.083286
 O 9.995930 9.362125 1.787016
 H 8.488303 6.674272 7.642060
 H 3.663721 4.808399 6.504859
 O 8.236201 6.662058 10.555462
 H 8.000718 7.343028 3.846241
 H 4.919153 6.019835 4.451492
 O 2.830225 1.671695 0.043644
 H 8.117808 9.635791 8.390283
 H 1.586725 1.666464 0.391800
 O 0.885334 2.874884 4.299475
 H 3.926563 10.533411 4.977022
 H 4.065724 7.995889 3.057324
 O 5.180418 0.361955 9.230339
 H 4.579622 3.700426 1.493672
 H 9.077025 3.352006 7.392574
K_POINTS
 1
0.0 0.0 0.0 1.0