&control
    calculation='md'
    pseudo_dir = './',
    outdir='./outputs',
    disk_io='high',
    dt=10,
    nstep=5000
    
/
&system
    ibrav= 1, celldm(1)=20.0, nat=  30, ntyp= 2,
    ecutwfc = 30.0, nosym=.true., occupations='smearing',
    smearing='m-v', degauss=0.025
/
&electrons
    conv_thr =  1.0d-8,
    mixing_beta = 0.7,
    scf_must_converge=.false.,
    electron_maxstep=500
/
&ions
    pot_extrapolation='second-order'
    wfc_extrapolation='second-order'
    ion_temperature = 'andersen'
    tempw = 1000

/
ATOMIC_SPECIES
 H  1.01  H.blyp-hgh.UPF
 O  16.0  O.blyp-hgh.UPF
ATOMIC_POSITIONS angstrom
 O 3.960438 8.688972 2.298394
 H 5.392637 1.955987 5.038222
 H 10.575465 9.613618 2.741197
 O 9.967351 4.235983 3.483928
 H 9.736991 2.798318 3.812528
 H 9.567821 3.078998 3.488608
 O 8.077722 1.447620 10.448928
 H 1.839144 7.805600 4.543382
 H 3.556958 7.445292 2.490862
 O 6.065928 4.116734 9.604644
 H 7.502793 9.316637 0.008508
 H 0.397017 9.111118 0.805581
 O 2.889723 8.760021 9.169748
 H 7.536751 8.161022 10.493124
 H 10.049928 7.682326 1.689644
 O 1.520561 2.704343 0.835532
 H 3.046730 6.990623 0.552661
 H 7.472870 4.008954 4.903343
 O 0.409011 3.850317 1.511997
 H 2.654554 0.109764 5.948706
 H 0.438460 0.919567 1.625942
 O 1.624642 0.192911 5.750565
 H 3.482431 5.207646 10.182672
 H 7.165327 0.484191 7.743833
 O 5.511247 0.040012 0.237851
 H 2.569656 8.707392 5.485556
 H 3.066794 8.310592 3.907693
 O 5.876936 7.120974 9.444934
 H 4.835927 2.857499 9.208386
 H 3.368865 5.428620 2.298240
K_POINTS
 1
0.0 0.0 0.0 1.0