&control
    calculation='scf'
    pseudo_dir = '../pslibrary/pbe/PSEUDOPOTENTIALS/',
    outdir='./outputs',
    disk_io='high'
/
&system
    ibrav= 1, celldm(1)=20.0, nat=  3, ntyp= 2,
    ecutwfc = 150.0, nosym=.true., occupations='smearing',
    smearing='m-v', degauss=0.025
/
&electrons
    conv_thr =  1.0d-8,
    mixing_beta = 0.7
/
&ions
    pot_extrapolation='second-order'
    wfc_extrapolation='second-order'
    ion_temperature = 'andersen'

/
ATOMIC_SPECIES
 H  1.01  H.pbe-rrkjus_psl.1.0.0.UPF
 O  16.0  O.pbe-n-rrkjus_psl.1.0.0.UPF
ATOMIC_POSITIONS angstrom
 O 0.241804 0.003154 -0.080280
 H -3.242346 -0.724270 1.973505
 H -0.588212 0.674305 0.233454
K_POINTS {automatic}
 1 1 1 0 0 0