&control
    calculation='scf'
    pseudo_dir = '../pslibrary/pbe/PSEUDOPOTENTIALS/',
    outdir='./outputs',
    disk_io='high'
/
&system
    ibrav= 1, celldm(1)=20.0, nat=  3, ntyp= 2,
    ecutwfc = 200.0, nosym=.true., occupations='smearing',
    smearing='m-v', degauss=0.025
/
&electrons
    conv_thr =  1.0d-8,
    mixing_beta = 0.7
/
&ions
    pot_extrapolation='second-order'
    wfc_extrapolation='second-order'
    ion_temperature = 'andersen'

/
ATOMIC_SPECIES
 H  1.01  H.pbe-kjpaw_psl.1.0.0.UPF 
 O  16.0  O.pbe-n-kjpaw_psl.1.0.0.UPF 
ATOMIC_POSITIONS angstrom
 O 0.044638 0.110774 0.003193
 H -1.146061 -1.509014 -0.224955
 H 0.438923 -0.245824 1.109577
K_POINTS {automatic}
 1 1 1 0 0 0